p cnf 49 243
1 2 8 15 22 29 36 43 0
2 1 0
4 5 6 7 11 18 25 32 39 46 0
5 4 6 7 12 0
6 5 4 7 13 20 27 34 41 0
7 6 5 4 14 0
8 15 22 29 36 43 1 0
10 11 12 13 14 17 24 31 38 45 0
11 10 12 13 14 18 25 32 39 46 4 0
12 11 10 13 14 5 0
13 12 11 10 14 20 27 34 41 6 0
14 13 12 11 10 7 0
15 16 17 18 22 29 36 43 8 1 0
16 15 17 18 23 30 0
17 16 15 18 24 31 38 45 10 0
18 17 16 15 25 32 39 46 11 4 0
20 27 34 41 13 6 0
22 23 24 25 26 27 28 29 36 43 15 8 1 0
23 22 24 25 26 27 28 30 16 0
24 23 22 25 26 27 28 31 38 45 17 10 0
25 24 23 22 26 27 28 32 39 46 18 11 4 0
26 25 24 23 22 27 28 33 40 47 0
27 26 25 24 23 22 28 34 41 20 13 6 0
28 27 26 25 24 23 22 35 42 49 0
29 30 31 32 33 34 35 36 43 22 15 8 1 0
30 29 31 32 33 34 35 23 16 0
31 30 29 32 33 34 35 38 45 24 17 10 0
32 31 30 29 33 34 35 39 46 25 18 11 4 0
33 32 31 30 29 34 35 40 47 26 0
34 33 32 31 30 29 35 41 27 20 13 6 0
35 34 33 32 31 30 29 42 49 28 0
38 39 40 41 42 45 31 24 17 10 0
39 38 40 41 42 46 32 25 18 11 4 0
40 39 38 41 42 47 33 26 0
41 40 39 38 42 34 27 20 13 6 0
42 41 40 39 38 49 35 28 0
43 44 45 46 47 36 29 22 15 8 1 0
44 43 45 46 47 0
45 44 43 46 47 38 31 24 17 10 0
46 45 44 43 47 39 32 25 18 11 4 0
47 46 45 44 43 40 33 26 0
49 42 35 28 0
-1 -2 0
-1 -8 0
-1 -15 0
-1 -22 0
-1 -29 0
-1 -36 0
-1 -43 0
-4 -5 0
-4 -6 0
-4 -7 0
-4 -11 0
-4 -18 0
-4 -25 0
-4 -32 0
-4 -39 0
-4 -46 0
-5 -6 0
-5 -7 0
-5 -12 0
-6 -7 0
-6 -13 0
-6 -20 0
-6 -27 0
-6 -34 0
-6 -41 0
-7 -14 0
-8 -15 0
-8 -22 0
-8 -29 0
-8 -36 0
-8 -43 0
-10 -11 0
-10 -12 0
-10 -13 0
-10 -14 0
-10 -17 0
-10 -24 0
-10 -31 0
-10 -38 0
-10 -45 0
-11 -12 0
-11 -13 0
-11 -14 0
-11 -18 0
-11 -25 0
-11 -32 0
-11 -39 0
-11 -46 0
-12 -13 0
-12 -14 0
-13 -14 0
-13 -20 0
-13 -27 0
-13 -34 0
-13 -41 0
-15 -16 0
-15 -17 0
-15 -18 0
-15 -22 0
-15 -29 0
-15 -36 0
-15 -43 0
-16 -17 0
-16 -18 0
-16 -23 0
-16 -30 0
-17 -18 0
-17 -24 0
-17 -31 0
-17 -38 0
-17 -45 0
-18 -25 0
-18 -32 0
-18 -39 0
-18 -46 0
-20 -27 0
-20 -34 0
-20 -41 0
-22 -23 0
-22 -24 0
-22 -25 0
-22 -26 0
-22 -27 0
-22 -28 0
-22 -29 0
-22 -36 0
-22 -43 0
-23 -24 0
-23 -25 0
-23 -26 0
-23 -27 0
-23 -28 0
-23 -30 0
-24 -25 0
-24 -26 0
-24 -27 0
-24 -28 0
-24 -31 0
-24 -38 0
-24 -45 0
-25 -26 0
-25 -27 0
-25 -28 0
-25 -32 0
-25 -39 0
-25 -46 0
-26 -27 0
-26 -28 0
-26 -33 0
-26 -40 0
-26 -47 0
-27 -28 0
-27 -34 0
-27 -41 0
-28 -35 0
-28 -42 0
-28 -49 0
-29 -30 0
-29 -31 0
-29 -32 0
-29 -33 0
-29 -34 0
-29 -35 0
-29 -36 0
-29 -43 0
-30 -31 0
-30 -32 0
-30 -33 0
-30 -34 0
-30 -35 0
-31 -32 0
-31 -33 0
-31 -34 0
-31 -35 0
-31 -38 0
-31 -45 0
-32 -33 0
-32 -34 0
-32 -35 0
-32 -39 0
-32 -46 0
-33 -34 0
-33 -35 0
-33 -40 0
-33 -47 0
-34 -35 0
-34 -41 0
-35 -42 0
-35 -49 0
-36 -43 0
-38 -39 0
-38 -40 0
-38 -41 0
-38 -42 0
-38 -45 0
-39 -40 0
-39 -41 0
-39 -42 0
-39 -46 0
-40 -41 0
-40 -42 0
-40 -47 0
-41 -42 0
-42 -49 0
-43 -44 0
-43 -45 0
-43 -46 0
-43 -47 0
-44 -45 0
-44 -46 0
-44 -47 0
-45 -46 0
-45 -47 0
-46 -47 0
2 16 8 10 0
-2 -16 0
-2 -8 0
-2 -10 0
-16 -8 0
-16 -10 0
-8 -10 0
-12 0
-26 0
-18 0
-20 0
-14 0
-28 0
-30 0
-44 0
-36 0
-38 0
41 47 49 0
-41 -47 0
-41 -49 0
-47 -49 0
-3 0
-9 0
-19 0
-21 0
-37 0
-48 0